
******************************************************************************
This program contains Ipopt, a library for large-scale nonlinear optimization.
 Ipopt is released as open source code under the Eclipse Public License (EPL).
         For more information visit http://projects.coin-or.org/Ipopt

This version of Ipopt was compiled from source code available at
    https://github.com/IDAES/Ipopt as part of the Institute for the Design of
    Advanced Energy Systems Process Systems Engineering Framework (IDAES PSE
    Framework) Copyright (c) 2018-2019. See https://github.com/IDAES/idaes-pse.

This version of Ipopt was compiled using HSL, a collection of Fortran codes
    for large-scale scientific computation.  All technical papers, sales and
    publicity material resulting from use of the HSL codes within IPOPT must
    contain the following acknowledgement:
        HSL, a collection of Fortran codes for large-scale scientific
        computation. See http://www.hsl.rl.ac.uk.
******************************************************************************

This is Ipopt version 3.13.2, running with linear solver ma27.

Number of nonzeros in equality constraint Jacobian...:      808
Number of nonzeros in inequality constraint Jacobian.:        0
Number of nonzeros in Lagrangian Hessian.............:      702

Total number of variables............................:      351
                     variables with only lower bounds:      108
                variables with lower and upper bounds:      189
                     variables with only upper bounds:        0
Total number of equality constraints.................:      350
Total number of inequality constraints...............:        0
        inequality constraints with only lower bounds:        0
   inequality constraints with lower and upper bounds:        0
        inequality constraints with only upper bounds:        0

iter    objective    inf_pr   inf_du lg(mu)  ||d||  lg(rg) alpha_du alpha_pr  ls
   0  0.0000000e+00 1.82e+00 8.88e-16  -1.0 0.00e+00    -  0.00e+00 0.00e+00   0
   1  4.6677328e-03 1.70e+00 1.39e+05  -1.0 6.43e+04    -  1.02e-01 7.44e-02h  1
   2  8.1128178e-03 1.66e+00 1.35e+05  -1.0 5.95e+04    -  1.43e-01 2.55e-02h  1
   3  8.6524172e-03 1.66e+00 1.35e+05  -1.0 1.81e+05    -  8.05e-01 2.84e-03h  1
   4  3.1245827e+00 2.63e+00 1.37e+05  -1.0 1.94e+05    -  2.61e-01 8.32e-01h  1
   5  4.0000214e+00 2.16e+00 1.09e+05  -1.0 1.17e+05    -  7.44e-02 2.15e-01h  3
   6  8.2062729e+00 9.86e-01 2.41e+04  -1.0 9.42e+04    -  4.09e-01 9.90e-01h  1
   7  8.4012819e+00 3.21e-01 4.97e+03  -1.0 5.65e+03    -  9.85e-01 9.90e-01h  1
   8  8.4060016e+00 6.54e-02 9.05e+04  -1.0 1.16e+02    -  8.86e-01 9.90e-01h  1
   9  8.6349337e+00 6.24e-03 6.34e+04  -1.0 4.06e+03    -  9.89e-01 9.90e-01h  1
iter    objective    inf_pr   inf_du lg(mu)  ||d||  lg(rg) alpha_du alpha_pr  ls
  10  8.4070034e+00 1.53e-03 2.09e+09  -1.0 5.39e+03    -  9.90e-01 7.42e-01h  1
  11  8.5086313e+00 1.27e-04 2.84e+08  -1.0 1.81e+03    -  9.98e-01 9.90e-01h  1
  12  8.5061123e+00 1.26e-06 3.26e+10  -1.0 4.41e+01    -  1.00e+00 9.90e-01h  1
In iteration 12, 27 Slacks too small, adjusting variable bounds
  13  8.5060866e+00 1.26e-08 3.26e+12  -1.0 4.50e-01    -  1.00e+00 9.90e-01h  1
  14  8.5060863e+00 1.22e-12 1.22e-02  -1.0 4.50e-03    -  1.00e+00 1.00e+00h  1
  15  8.5052849e+00 6.37e-09 3.31e+12  -9.0 1.84e+03    -  9.99e-01 7.64e-03f  8
  16  8.5044897e+00 1.26e-08 3.29e+12  -9.0 1.79e+03    -  1.00e+00 7.81e-03f  8
  17  8.4036631e+00 1.34e-09 3.07e-01  -9.0 1.77e+03    -  1.00e+00 1.00e+00F  1
  18  8.4036566e+00 1.39e-12 2.16e-05  -9.0 1.14e-01    -  1.00e+00 1.00e+00h  1
  19  8.4036566e+00 9.94e-13 1.09e-11  -9.0 1.60e-05    -  1.00e+00 1.00e+00f  1

Number of Iterations....: 19

                                   (scaled)                 (unscaled)
Objective...............:   8.4036566331009404e+00    8.4036566331009404e+00
Dual infeasibility......:   1.0913936421275139e-11    1.0913936421275139e-11
Constraint violation....:   9.4973393167582543e-13    9.9409369624936517e-13
Complementarity.........:   9.0909128703075989e-10    9.0909128703075989e-10
Overall NLP error.......:   5.4488696091635508e-11    9.0909128703075989e-10


Number of objective function evaluations             = 47
Number of objective gradient evaluations             = 20
Number of equality constraint evaluations            = 47
Number of inequality constraint evaluations          = 0
Number of equality constraint Jacobian evaluations   = 20
Number of inequality constraint Jacobian evaluations = 0
Number of Lagrangian Hessian evaluations             = 19
Total CPU secs in IPOPT (w/o function evaluations)   =      0.043
Total CPU secs in NLP function evaluations           =      0.534

EXIT: Optimal Solution Found.
